UBC_100_9.txt

VEHICLE     CAPACITY  LOCATIONS  CUSTOMER  OPTIONS  PRIORITIES  NUMTYPS
10		400		105		100		200		3		4

CUSTOMER  DEMAND
0	 17
1	 15
2	 19
3	 16
4	 20
5	 16
6	 18
7	 10
8	 20
9	 19
10	 15
11	 14
12	 14
13	 18
14	 16
15	 15
16	 19
17	 20
18	 20
19	 14
20	 14
21	 12
22	 14
23	 13
24	 15
25	 14
26	 19
27	 12
28	 14
29	 16
30	 13
31	 14
32	 12
33	 10
34	 19
35	 16
36	 12
37	 10
38	 13
39	 10
40	 16
41	 15
42	 20
43	 18
44	 13
45	 11
46	 17
47	 15
48	 18
49	 12
50	 13
51	 16
52	 11
53	 14
54	 17
55	 13
56	 13
57	 19
58	 17
59	 13
60	 13
61	 17
62	 18
63	 19
64	 13
65	 10
66	 15
67	 17
68	 14
69	 14
70	 19
71	 13
72	 12
73	 18
74	 11
75	 19
76	 11
77	 10
78	 17
79	 11
80	 10
81	 20
82	 15
83	 11
84	 13
85	 17
86	 16
87	 13
88	 18
89	 19
90	 11
91	 16
92	 17
93	 20
94	 11
95	 12
96	 12
97	 11
98	 17
99	 15

LOCATION  XCOORD  YCOORD  CAP  READY  DUE  TYP  SERVICETIME
0		33		4		-1		0		720	 0		0
1		44		33		-1		73		193		 2		6
2		3		2		-1		234		354		 2		6
3		36		49		-1		194		314		 2		6
4		13		35		-1		192		312		 2		6
5		38		6		-1		430		550		 2		6
6		1		48		-1		0		360		 2		6
7		11		23		-1		360		720		 2		6
8		32		41		-1		37		277		 2		6
9		46		36		-1		360		720		 2		6
10		6		45		-1		565		685		 2		6
11		31		32		-1		278		518		 2		6
12		32		6		-1		279		519		 2		6
13		36		31		-1		375		615		 2		6
14		36		28		-1		294		534		 2		6
15		50		37		-1		56		176		 2		6
16		1		21		-1		0		360		 2		6
17		10		25		-1		0		360		 2		6
18		44		20		-1		360		720		 2		6
19		35		22		-1		78		198		 2		6
20		9		41		-1		0		360		 2		6
21		3		37		-1		82		202		 2		6
22		18		24		-1		0		360		 2		6
23		17		31		-1		360		720		 2		6
24		26		45		-1		360		720		 2		6
25		19		28		-1		461		581		 2		6
26		2		22		-1		360		720		 2		6
27		16		33		-1		434		554		 2		6
28		4		5		-1		0		360		 2		6
29		18		14		-1		360		720		 2		6
30		25		20		-1		205		445		 2		6
31		5		5		-1		0		360		 2		6
32		40		35		-1		0		360		 2		6
33		50		16		-1		595		715		 2		6
34		2		12		-1		398		518		 2		6
35		32		17		-1		592		712		 2		6
36		46		19		-1		319		559		 2		6
37		40		39		-1		0		360		 2		6
38		13		9		-1		360		720		 2		6
39		32		17		-1		360		720		 2		6
40		11		8		-1		360		720		 2		6
41		18		16		-1		63		183		 2		6
42		20		5		-1		167		407		 2		6
43		38		20		-1		360		720		 2		6
44		20		15		-1		386		506		 2		6
45		1		15		-1		364		604		 2		6
46		31		1		-1		453		693		 2		6
47		44		22		-1		0		360		 2		6
48		10		37		-1		315		555		 2		6
49		9		34		-1		360		720		 2		6
50		12		35		-1		0		360		 2		6
51		3		4		-1		427		667		 2		6
52		4		44		-1		91		331		 2		6
53		38		19		-1		0		360		 2		6
54		15		4		-1		0		360		 2		6
55		8		35		-1		0		360		 2		6
56		25		14		-1		560		680		 2		6
57		44		29		-1		11		131		 2		6
58		37		25		-1		156		396		 2		6
59		30		25		-1		213		333		 2		6
60		38		36		-1		427		667		 2		6
61		26		23		-1		0		360		 2		6
62		30		23		-1		360		720		 2		6
63		39		28		-1		0		360		 2		6
64		8		39		-1		467		587		 2		6
65		10		32		-1		46		286		 2		6
66		38		48		-1		25		145		 2		6
67		10		5		-1		190		430		 2		6
68		37		21		-1		568		688		 2		6
69		36		16		-1		560		680		 2		6
70		27		27		-1		397		637		 2		6
71		25		11		-1		228		468		 2		6
72		21		5		-1		360		720		 2		6
73		20		34		-1		0		360		 2		6
74		31		5		-1		0		360		 2		6
75		24		50		-1		137		377		 2		6
76		29		41		-1		553		673		 2		6
77		4		29		-1		425		545		 2		6
78		17		18		-1		446		566		 2		6
79		26		46		-1		587		707		 2		6
80		34		25		-1		501		621		 2		6
81		37		7		-1		0		360		 2		6
82		40		21		-1		360		720		 2		6
83		7		31		-1		431		551		 2		6
84		47		3		-1		0		360		 2		6
85		24		43		-1		90		210		 2		6
86		46		35		-1		0		360		 2		6
87		16		50		-1		483		603		 2		6
88		41		14		-1		0		360		 2		6
89		23		10		-1		360		720		 2		6
90		12		43		-1		0		360		 2		6
91		28		18		-1		360		720		 2		6
92		22		8		-1		433		673		 2		6
93		10		43		-1		360		720		 2		6
94		4		3		-1		504		624		 2		6
95		50		5		-1		360		720		 2		6
96		31		12		-1		0		360		 2		6
97		8		18		-1		406		646		 2		6
98		40		23		-1		74		314		 2		6
99		49		33		-1		385		505		 2		6
100		5		24		-1		0		360		 2		6
101		22		11		30		199		679		 1		4
102		11		32		22		0		720		 1		4
103		11		44		30		0		720		 1		4
104		18		19		30		116		596		 1		4
OPTION  LOCATION  CUSTOMER  PRIO  SERVICETIME   COST
0		102		0		0		2		0
1		102		1		0		2		0
2		101		2		0		2		0
3		101		3		0		2		0
4		103		4		0		2		0
5		104		5		0		2		0
6		102		6		0		2		0
7		104		7		0		2		0
8		101		8		0		2		0
9		102		9		0		2		0
10		102		10		0		2		0
11		104		11		0		2		0
12		101		12		0		2		0
13		104		13		0		2		0
14		104		14		0		2		0
15		101		15		0		2		0
16		101		16		0		2		0
17		101		17		0		2		0
18		101		18		0		2		0
19		104		19		0		2		0
20		1		20		0		5		0
21		2		21		0		5		0
22		3		22		0		5		0
23		4		23		0		5		0
24		5		24		0		5		0
25		6		25		0		5		0
26		7		26		0		5		0
27		8		27		0		5		0
28		9		28		0		5		0
29		10		29		0		5		0
30		11		30		0		5		0
31		12		31		0		5		0
32		13		32		0		5		0
33		14		33		0		5		0
34		15		34		0		5		0
35		16		35		0		5		0
36		17		36		0		5		0
37		18		37		0		5		0
38		19		38		0		5		0
39		20		39		0		5		0
40		21		40		1		5		0
41		102		40		0		2		0
42		22		41		1		5		0
43		101		41		0		2		0
44		23		42		0		5		0
45		104		42		1		2		0
46		24		43		1		5		0
47		101		43		0		2		0
48		25		44		1		5		0
49		103		44		0		2		0
50		26		45		1		5		0
51		103		45		0		2		0
52		27		46		0		5		0
53		102		46		1		2		0
54		28		47		1		5		0
55		104		47		0		2		0
56		29		48		0		5		0
57		102		48		1		2		0
58		30		49		0		5		0
59		101		49		1		2		0
60		31		50		0		5		0
61		102		50		1		2		0
62		32		51		0		5		0
63		104		51		1		2		0
64		33		52		1		5		0
65		104		52		0		2		0
66		34		53		0		5		0
67		101		53		1		2		0
68		35		54		0		5		0
69		102		54		1		2		0
70		36		55		1		5		0
71		103		55		0		2		0
72		37		56		0		5		0
73		103		56		1		2		0
74		38		57		0		5		0
75		101		57		1		2		0
76		39		58		1		5		0
77		104		58		0		2		0
78		40		59		0		5		0
79		104		59		1		2		0
80		41		60		2		5		0
81		104		60		1		2		0
82		102		60		0		2		0
83		42		61		0		5		0
84		101		61		1		2		0
85		102		61		2		2		0
86		43		62		2		5		0
87		104		62		0		2		0
88		102		62		1		2		0
89		44		63		2		5		0
90		103		63		1		2		0
91		101		63		0		2		0
92		45		64		0		5		0
93		103		64		1		2		0
94		104		64		2		2		0
95		46		65		1		5		0
96		103		65		0		2		0
97		102		65		2		2		0
98		47		66		0		5		0
99		104		66		1		2		0
100		102		66		2		2		0
101		48		67		0		5		0
102		104		67		1		2		0
103		102		67		2		2		0
104		49		68		2		5		0
105		104		68		1		2		0
106		103		68		0		2		0
107		50		69		0		5		0
108		103		69		2		2		0
109		101		69		1		2		0
110		51		70		2		5		0
111		101		70		1		2		0
112		102		70		0		2		0
113		52		71		1		5		0
114		101		71		2		2		0
115		102		71		0		2		0
116		53		72		1		5		0
117		103		72		2		2		0
118		102		72		0		2		0
119		54		73		0		5		0
120		104		73		1		2		0
121		102		73		2		2		0
122		55		74		1		5		0
123		104		74		0		2		0
124		103		74		2		2		0
125		56		75		0		5		0
126		102		75		1		2		0
127		103		75		2		2		0
128		57		76		0		5		0
129		104		76		1		2		0
130		103		76		2		2		0
131		58		77		1		5		0
132		102		77		2		2		0
133		101		77		0		2		0
134		59		78		2		5		0
135		104		78		0		2		0
136		103		78		1		2		0
137		60		79		0		5		0
138		103		79		1		2		0
139		102		79		2		2		0
140		61		80		2		5		0
141		62		80		0		5		0
142		101		80		1		2		0
143		63		81		2		5		0
144		64		81		0		5		0
145		101		81		1		2		0
146		65		82		2		5		0
147		66		82		1		5		0
148		104		82		0		2		0
149		67		83		0		5		0
150		68		83		1		5		0
151		103		83		2		2		0
152		69		84		1		5		0
153		70		84		0		5		0
154		103		84		2		2		0
155		71		85		0		5		0
156		72		85		1		5		0
157		103		85		2		2		0
158		73		86		2		5		0
159		74		86		0		5		0
160		101		86		1		2		0
161		75		87		1		5		0
162		76		87		0		5		0
163		103		87		2		2		0
164		77		88		0		5		0
165		78		88		2		5		0
166		101		88		1		2		0
167		79		89		1		5		0
168		80		89		2		5		0
169		102		89		0		2		0
170		81		90		1		5		0
171		82		90		2		5		0
172		101		90		0		2		0
173		83		91		0		5		0
174		84		91		1		5		0
175		103		91		2		2		0
176		85		92		1		5		0
177		86		92		2		5		0
178		104		92		0		2		0
179		87		93		0		5		0
180		88		93		1		5		0
181		102		93		2		2		0
182		89		94		1		5		0
183		90		94		2		5		0
184		101		94		0		2		0
185		91		95		0		5		0
186		92		95		2		5		0
187		104		95		1		2		0
188		93		96		2		5		0
189		94		96		1		5		0
190		101		96		0		2		0
191		95		97		0		5		0
192		96		97		2		5		0
193		103		97		1		2		0
194		97		98		1		5		0
195		98		98		0		5		0
196		101		98		2		2		0
197		99		99		2		5		0
198		100		99		1		5		0
199		102		99		0		2		0
